
Gurobi 10.0.1 (linux64) logging started Sun Nov 26 15:37:37 2023

Set parameter LogFile to value "ArtificialInstance/ExperimentV2/S3T4K3/AdSp/gurobi1.txt"
Gurobi Optimizer version 10.0.1 build v10.0.1rc0 (linux64)

CPU model: AMD EPYC 7H12 64-Core Processor, instruction set [SSE2|AVX|AVX2]
Thread count: 128 physical cores, 128 logical processors, using up to 32 threads

Academic license 656792 - for non-commercial use only - registered to b.___@student.vu.nl
Optimize a model with 17280 rows, 16344 columns and 63002 nonzeros
Model fingerprint: 0x16a9d574
Variable types: 0 continuous, 16344 integer (16344 binary)
Coefficient statistics:
  Matrix range     [1e+00, 1e+00]
  Objective range  [1e+00, 2e+01]
  Bounds range     [1e+00, 1e+00]
  RHS range        [1e+00, 1e+00]
Presolve removed 5506 rows and 5500 columns
Presolve time: 0.35s
Presolved: 11774 rows, 10844 columns, 42234 nonzeros
Variable types: 0 continuous, 10844 integer (10844 binary)

Root relaxation: objective 6.973546e+01, 4467 iterations, 0.16 seconds (0.10 work units)

    Nodes    |    Current Node    |     Objective Bounds      |     Work
 Expl Unexpl |  Obj  Depth IntInf | Incumbent    BestBd   Gap | It/Node Time

     0     0   69.73546    0   47          -   69.73546      -     -    0s
H    0     0                      85.5366454   69.73546  18.5%     -    0s
H    0     0                      71.4661397   69.73546  2.42%     -    0s
     0     0   70.79506    0  108   71.46614   70.79506  0.94%     -    0s

Cutting planes:
  Gomory: 3
  Zero half: 5

Explored 1 nodes (7156 simplex iterations) in 1.00 seconds (0.62 work units)
Thread count was 32 (of 128 available processors)

Solution count 2: 71.4661 85.5366 

Optimal solution found (tolerance 1.00e-04)
Best objective 7.146613969144e+01, best bound 7.146613969144e+01, gap 0.0000%
